0000000000000000
0011110000000000
0111111100000000
0111111110000000
0000001111000000
0000000111100000
0000000111100000
0000000011100000
0000000011100000
0000000111100000
0000000111100000
0000001111000000
0110011111000000
0111111110000000
0111111100000000
0000000000000000
